NAME: concorde9
TYPE: TSP
RUN_TIME: 0.15
DISTANCE: 131
COMMENT: Solution by max williams
DIMENSION: 9
EDGE_WEIGHT_TYPE: EUC_2D
NODE_COORD_SECTION
1 21.024096 75.654450
7 30.481928 55.497383
6 33.373493 45.811520
3 41.566265 37.303665
5 52.108433 47.905758
2 57.771084 73.298430
9 42.168674 67.931940
4 37.048195 74.345550
8 38.192772 78.010470
